DIMENSION: 18
EDGE_WEIGHT_TYPE: EXPLICIT
EDGE_WEIGHT_FORMAT: FULL_MATRIX
EDGE_WEIGHT_SECTION:
32767 32767 11 32767 32767 32767 32767 32767 32767 32767 32767 32767 32767 32767 32767 32767 63 32767 
32767 32767 32767 32767 32767 32767 32767 90 45 48 64 32767 32767 32767 54 32767 32767 32767 
11 32767 32767 32767 100 63 32767 32767 32767 32767 32767 60 32767 32767 32767 32767 32767 32767 
32767 32767 32767 32767 32767 32767 2 32767 32767 32767 43 32767 32767 32767 32767 32767 32767 32767 
32767 32767 100 32767 32767 32767 25 22 32767 32767 47 32767 32767 86 32767 98 58 32767 
32767 32767 63 32767 32767 32767 32767 53 32767 32767 13 32767 32767 100 27 86 32767 32767 
32767 32767 32767 2 25 32767 32767 41 20 32767 32767 32767 32767 24 32767 32767 32767 32767 
32767 90 32767 32767 22 53 41 32767 51 32767 63 32767 32767 32767 31 32767 9 32767 
32767 45 32767 32767 32767 32767 20 51 32767 32767 32767 32767 32767 32767 32767 32767 32767 32767 
32767 48 32767 32767 32767 32767 32767 32767 32767 32767 32767 32767 32767 32767 32767 74 96 32767 
32767 64 32767 43 47 13 32767 63 32767 32767 32767 32767 32767 32767 49 32767 79 32767 
32767 32767 60 32767 32767 32767 32767 32767 32767 32767 32767 32767 32767 32767 32767 1 32767 7 
32767 32767 32767 32767 32767 32767 32767 32767 32767 32767 32767 32767 32767 32767 32767 32767 79 32767 
32767 32767 32767 32767 86 100 24 32767 32767 32767 32767 32767 32767 32767 19 32767 32767 32767 
32767 54 32767 32767 32767 27 32767 31 32767 32767 49 32767 32767 19 32767 32767 32767 28 
32767 32767 32767 32767 98 86 32767 32767 32767 74 32767 1 32767 32767 32767 32767 32767 75 
63 32767 32767 32767 58 32767 32767 9 32767 96 79 32767 79 32767 32767 32767 32767 32767 
32767 32767 32767 32767 32767 32767 32767 32767 32767 32767 32767 7 32767 32767 28 75 32767 32767 
EOF